Water Network: 9
Results smooth approximation 1 of Hazen--Williams headloss constraint using absolute error

*******************************************************************************
wdnmodel.mod

-------------------------------- Solving with gurobi --------------------------
Gurobi 12.0.3: Set parameter LogToConsole to value 1
  tech:outlev = 1
  tech:outlev_mp = 1
Set parameter Presolve to value 1
  pre:solve = 1
Set parameter Aggregate to value 1
  pre:aggregate = 1
Set parameter TimeLimit to value 600
  lim:time = 600
Set parameter NumericFocus to value 1
  alg:numericfocus = 1
Set parameter OBBT to value 0
  mip:obbt = 0
Set parameter ScaleFlag to value 1
  pre:scale = 1
Set parameter Method to value 2
  alg:method = 2
Set parameter NodeMethod to value 1
  mip:nodemethod = 1
Set parameter NonConvex to value 2
  qp:nonconvex = 2
Set parameter MIPFocus to value 1
  mip:focus = 1
Set parameter NLPHeur to value 1
  alg:nlpheur = 1
Set parameter VarBranch to value 0
  mip:varbranch = 0
Set parameter MIPGapAbs to value 1e-05
  mip:gapabs = 1.0000000000000001e-05
Set parameter MIPGap to value 1e-06
  mip:gap = 9.9999999999999995e-07
Set parameter FeasibilityTol to value 1e-05
  alg:feastol = 1.0000000000000001e-05
  cvt:pre:feastol = 1.0000000000000001e-05
  cvt:pre:feastolrel = 9.9999999999999995e-07
  sol:chk:feastol = 1.0000000000000001e-05
  sol:chk:feastolrel = 9.9999999999999995e-07

AMPL MP initial flat model has 500 variables (0 integer, 0 binary);
Objectives: 1 linear; 
Constraints:  94 linear; 174 quadratic;
Algebraic expressions:  58 powconstexp;

AMPL MP final model has 732 variables (0 integer, 0 binary);
Objectives: 1 linear; 
Constraints:  152 linear; 174 quadratic;
Algebraic expressions:  58 powconstexp;


Set parameter InfUnbdInfo to value 1
Gurobi Optimizer version 12.0.3 build v12.0.3rc0 (linux64 - "Debian GNU/Linux 12 (bookworm)")

CPU model: INTEL(R) XEON(R) GOLD 6530, instruction set [SSE2|AVX|AVX2|AVX512]
Thread count: 32 physical cores, 64 logical processors, using up to 32 threads

Non-default parameters:
TimeLimit  600
FeasibilityTol  1e-05
MIPGap  1e-06
MIPGapAbs  1e-05
Method  2
ScaleFlag  1
MIPFocus  1
NodeMethod  1
OBBT  0
VarBranch  0
InfUnbdInfo  1
NonConvex  2
NumericFocus  1
Presolve  1

Optimize a model with 152 rows, 732 columns and 694 nonzeros
Model fingerprint: 0x4a514cba
Model has 58 general nonlinear constraints (1624 nonlinear terms)
Variable types: 732 continuous, 0 integer (0 binary)
Coefficient statistics:
  Matrix range     [1e+00, 1e+00]
  Objective range  [7e+03, 1e+05]
  Bounds range     [6e-12, 2e+03]
  RHS range        [3e-04, 4e+02]
Presolve model has 58 nlconstr
Added 986 variables to disaggregate expressions.
Presolve removed 1 rows and 175 columns
Presolve time: 0.01s
Presolved: 2993 rows, 1602 columns, 6782 nonzeros
Presolved model has 522 bilinear constraint(s)
Presolved model has 58 nonlinear constraint(s)

Solving non-convex MINLP

Variable types: 1602 continuous, 0 integer (0 binary)
Root barrier log...

Ordering time: 0.01s

Barrier statistics:
 AA' NZ     : 1.536e+04
 Factor NZ  : 3.098e+04 (roughly 2 MB of memory)
 Factor Ops : 5.648e+05 (less than 1 second per iteration)
 Threads    : 1

                  Objective                Residual
Iter       Primal          Dual         Primal    Dual     Compl     Time
   0   5.10432434e+09 -2.46027756e+09  1.84e+03 0.00e+00  5.18e+06     5s
   1   7.62915647e+08 -5.48273267e+08  2.90e+02 2.91e-11  8.14e+05     5s
   2   1.58027039e+08 -4.37359121e+07  2.39e+01 6.33e-10  8.46e+04     5s
   3   6.91314942e+07  2.87840809e+07  1.25e+00 1.07e+00  1.17e+04     5s
   4   5.90285047e+07  4.82763647e+07  5.64e-02 4.72e-11  2.76e+03     5s
   5   5.81772122e+07  5.60455681e+07  8.22e-03 1.82e-11  5.44e+02     5s
   6   5.80828626e+07  5.75382027e+07  5.17e-03 2.91e-11  1.42e+02     5s
   7   5.80151285e+07  5.76912254e+07  2.99e-03 5.64e-11  8.43e+01     5s
   8   5.79943082e+07  5.77821620e+07  2.35e-03 2.37e-11  5.56e+01     5s
   9   5.79445012e+07  5.78284719e+07  8.26e-04 1.17e-10  2.99e+01     5s
  10   5.79197860e+07  5.79097766e+07  9.69e-05 3.09e-11  2.58e+00     5s
  11   5.79172654e+07  5.79162859e+07  2.50e-05 5.73e-11  2.65e-01     5s
  12   5.79163756e+07  5.79163753e+07  4.83e-09 4.45e-11  8.85e-05     5s
  13   5.79163754e+07  5.79163754e+07  3.18e-12 1.59e-10  5.44e-08     5s
  14   5.79163754e+07  5.79163754e+07  6.36e-11 8.19e-11  4.31e-11     5s

Barrier solved model in 14 iterations and 4.69 seconds (0.12 work units)
Optimal objective 5.79163754e+07


Root relaxation: objective 5.791638e+07, 178 iterations, 0.16 seconds (0.02 work units)

    Nodes    |    Current Node    |     Objective Bounds      |     Work
 Expl Unexpl |  Obj  Depth IntInf | Incumbent    BestBd   Gap | It/Node Time

     0     0 5.7916e+07    0  124          - 5.7916e+07      -     -    4s
     0     0 5.7916e+07    0  124          - 5.7916e+07      -     -    4s
     0     2 5.7916e+07    0  124          - 5.7916e+07      -     -   14s
    95   347 5.7916e+07    7  137          - 5.7916e+07      -  26.0   15s
  4836  5538 5.8246e+07   84  112          - 5.7916e+07      -  33.0   21s
  7627  7425 7.7963e+07  116  150          - 5.7916e+07      -  61.8   25s
 11710 10749 5.8174e+07   25  126          - 5.7916e+07      -  74.3   30s
 13241 10753 7.2026e+07   84    0          - 5.7916e+07      -  76.5   51s
 13244 10760 5.7916e+07   13  111          - 5.7916e+07      -  76.5   60s
 14999 12038 6.2666e+07   53   93          - 5.7916e+07      -  74.3   65s
 20339 14715 7.3495e+07   51  120          - 5.7916e+07      -  66.0   70s
 27022 17817 7.3989e+07   79  112          - 5.7916e+07      -  58.8   75s
 35350 21801 7.4425e+07  151  104          - 5.7916e+07      -  51.8   80s
 42366 24314 infeasible  201               - 5.7916e+07      -  47.7   92s
 47477 28360 8.1956e+07  242  117          - 5.7916e+07      -  44.7   95s
 57796 36732 infeasible  262               - 5.7916e+07      -  41.4  100s
 67034 44286 5.8961e+07   28  121          - 5.7916e+07      -  38.7  105s
 76770 52047 5.8331e+07   33  121          - 5.7916e+07      -  36.7  110s
 88325 61740 5.8557e+07   89   97          - 5.7916e+07      -  34.4  116s
 99511 70385 6.2513e+07  140  110          - 5.7916e+07      -  32.5  121s
 109343 77355 6.4183e+07  168   86          - 5.7916e+07      -  31.4  126s
 119073 85367 6.1258e+07   85   78          - 5.7916e+07      -  30.7  131s
 127513 91337 6.3210e+07  119   78          - 5.7916e+07      -  29.8  135s
 136707 98335 5.7920e+07  102   85          - 5.7916e+07      -  29.3  140s
 149983 108074 5.9868e+07  129  116          - 5.7916e+07      -  28.6  146s
 160418 115696 5.8645e+07  144  101          - 5.7916e+07      -  28.1  151s
 170488 123185 6.2776e+07   98   96          - 5.7916e+07      -  27.6  156s
 180644 131869 5.7916e+07   84   98          - 5.7916e+07      -  27.1  161s
 188024 137377 infeasible   95               - 5.7916e+07      -  26.6  166s
 195094 142150 5.7933e+07   82   94          - 5.7916e+07      -  26.4  170s
 204351 148671 5.8357e+07  146   92          - 5.7916e+07      -  26.5  176s
 210705 153852 5.7916e+07   88   75          - 5.7916e+07      -  26.5  180s
 221539 162372 5.9394e+07   98   73          - 5.7916e+07      -  26.1  185s
 231272 169246 infeasible   81               - 5.7916e+07      -  25.8  190s
 241179 176428 7.9450e+07   88  100          - 5.7916e+07      -  25.4  195s
 251248 184009 infeasible   83               - 5.7916e+07      -  25.2  200s
 261173 191411 6.3881e+07  170   81          - 5.7916e+07      -  25.1  205s
 271217 197873 5.9004e+07   79  103          - 5.7916e+07      -  24.8  217s
 276879 203874 5.9597e+07  114   87          - 5.7916e+07      -  24.7  221s
 287400 210844 infeasible   92               - 5.7916e+07      -  24.4  226s
 297618 218402 5.7958e+07   68  100          - 5.7916e+07      -  24.2  231s
 307564 225682 5.7917e+07  104   83          - 5.7916e+07      -  24.0  236s
 317760 233300 infeasible   90               - 5.7916e+07      -  23.9  241s
 328398 241241 6.0000e+07   96   81          - 5.7916e+07      -  23.7  246s
 338462 248861 infeasible  124               - 5.7916e+07      -  23.5  251s
 345652 253270 6.2736e+07  146   92          - 5.7916e+07      -  23.4  255s
 355142 260370 6.8563e+07  160   94          - 5.7916e+07      -  23.3  260s
 368579 268979 6.9499e+07  183   83          - 5.7916e+07      -  23.1  266s
 375462 272377 infeasible  200               - 5.7916e+07      -  23.0  278s
 376939 275868 7.1509e+07  200   97          - 5.7916e+07      -  23.0  280s
 385686 281372 infeasible  237               - 5.7916e+07      -  22.8  285s
 392825 286626 5.7916e+07   93   87          - 5.7916e+07      -  22.8  290s
 400188 292187 6.0525e+07  122   90          - 5.7916e+07      -  22.7  295s
 410463 298947 6.2995e+07  155  102          - 5.7916e+07      -  22.7  300s
 420046 305516 infeasible  117               - 5.7916e+07      -  22.7  305s
 430580 312810 6.1262e+07  103   75          - 5.7916e+07      -  22.6  311s
 440626 319653 5.8849e+07   94   94          - 5.7916e+07      -  22.5  316s
 447939 324235 7.3116e+07  226  120          - 5.7916e+07      -  22.5  320s
 457248 331342 6.0567e+07  214   88          - 5.7916e+07      -  22.4  325s
 467499 338518 5.8245e+07  126   82          - 5.7916e+07      -  22.3  331s
 474265 341488 infeasible  106               - 5.7916e+07      -  22.3  343s
 475398 344313 5.7921e+07  107   99          - 5.7916e+07      -  22.2  345s
 486563 351789 5.8146e+07   86   79          - 5.7916e+07      -  22.2  351s
 497534 359409 5.7940e+07  103  105          - 5.7916e+07      -  22.0  356s
 507897 366837 6.2892e+07  100   80          - 5.7916e+07      -  21.8  361s
 517547 373265 7.0631e+07  161   82          - 5.7916e+07      -  21.6  365s
 527202 380120 infeasible  114               - 5.7916e+07      -  21.5  371s
 534128 384601 5.7916e+07   97   74          - 5.7916e+07      -  21.5  375s
 544072 391540 6.3223e+07  153   77          - 5.7916e+07      -  21.4  380s
 553393 398156 infeasible  225               - 5.7916e+07      -  21.4  386s
 560249 402873 6.7668e+07  273   78          - 5.7916e+07      -  21.4  390s
 570006 409688 5.7916e+07   90   81          - 5.7916e+07      -  21.3  395s
 579803 414980 5.9024e+07  144   78          - 5.7916e+07      -  21.3  411s
 581064 426401 5.9009e+07  145   78          - 5.7916e+07      -  21.3  428s
 597389 429010 infeasible  118               - 5.7916e+07      -  21.2  431s
 604630 434018 5.8828e+07  123   98          - 5.7916e+07      -  21.2  435s
 615160 441472 6.1191e+07  209   98          - 5.7916e+07      -  21.2  441s
 621805 446393 5.8633e+07  127   86          - 5.7916e+07      -  21.2  445s
 632656 454820 5.7970e+07  128   81          - 5.7916e+07      -  21.0  450s
 643112 462448 infeasible  120               - 5.7916e+07      -  20.9  456s
 650177 467193 5.9860e+07  143   98          - 5.7916e+07      -  20.8  460s
 659687 474343 6.0779e+07  189   86          - 5.7916e+07      -  20.8  465s
 669484 481202 5.7917e+07  110   65          - 5.7916e+07      -  20.7  470s
 679368 486754 6.1752e+07  110   92          - 5.7916e+07      -  20.7  485s
 689558 495942 6.2500e+07  181   83          - 5.7916e+07      -  20.6  491s
 697027 500894 6.4646e+07  211   78          - 5.7916e+07      -  20.6  495s
 706989 508412 6.5939e+07  246   87          - 5.7916e+07      -  20.6  501s
 713782 512892 5.7979e+07  109   76          - 5.7916e+07      -  20.5  505s
 722862 519457 5.8755e+07   81   89          - 5.7916e+07      -  20.6  511s
 729666 524379 6.0575e+07  152   82          - 5.7916e+07      -  20.6  515s
 739913 531756 6.2758e+07  167   93          - 5.7916e+07      -  20.5  521s
 749642 538899 6.3013e+07  126   89          - 5.7916e+07      -  20.5  526s
 756208 543065 6.6446e+07  164   90          - 5.7916e+07      -  20.5  530s
 766284 548872 8.4754e+07  239  111          - 5.7916e+07      -  20.5  545s
 776133 557346 infeasible   85               - 5.7916e+07      -  20.4  551s
 783215 562998 6.3500e+07  126   78          - 5.7916e+07      -  20.3  555s
 793972 571165 6.9497e+07  184   85          - 5.7916e+07      -  20.2  560s
 804470 577987 7.1177e+07  215   86          - 5.7916e+07      -  20.2  565s
 813366 584379 infeasible   82               - 5.7916e+07      -  20.1  570s
 819547 589263 infeasible   82               - 5.7916e+07      -  20.1  575s
 829796 596051 5.8529e+07  120   79          - 5.7916e+07      -  20.1  580s
 833381 597034 6.0641e+07  166   79          - 5.7916e+07      -  20.1  590s
 842608 604325 5.8024e+07  102  104          - 5.7916e+07      -  20.0  596s
 849299 607630 6.0718e+07  104  105          - 5.7916e+07      -  20.1  600s

Explored 851596 nodes (17085389 simplex iterations) in 600.13 seconds (79.88 work units)
Thread count was 32 (of 64 available processors)

Solution count 0

Time limit reached
Best objective -, best bound 5.791637540000e+07, gap -
Gurobi 12.0.3: time limit, without a feasible solution
1.70854e+07 simplex iterations
52 barrier iterations
851596 branching nodes
eps [*,*]
:         1             2             3             4             5         :=
2     .             .            4.45332e-06    .             .
3     .             .             .            2.65185e-06    .
4     .             .             .             .            2.76678e-06
12    .             .             .            6.91692e-06    .
17    .            2.40523e-06    .             .             .
36   3.28178e-06    .             .             .             .
37   5.9011e-05     .             .             .             .

:         6             7             8             9            10         :=
5    2.54964e-06    .             .             .             .
6     .            4.16054e-06    .             .             .
18    .             .             .             .            5.39428e-06
21   3.28726e-06    .             .             .             .
22    .            2.53085e-06    .             .             .
24    .             .            4.21583e-06    .             .
25    .             .            3.97925e-06    .             .
28    .             .             .            3.62017e-06    .
30    .             .             .            4.36852e-06    .
31    .             .             .             .            3.5583e-06

:        11            12            13            14            15         :=
3    3.40048e-06    .             .             .             .
5     .             .            5.63694e-06    .             .
10   3.98699e-06    .             .             .             .
12    .             .            3.3414e-06     .             .
13    .             .             .            4.60874e-06    .
19    .            4.91789e-06    .             .             .
20    .             .             .             .            4.68863e-06
26    .             .             .             .            4.57737e-06

:        16            17            18            19            20         :=
1     .            4.21189e-06    .             .             .
2     .             .            3.77046e-06    .             .
11    .             .             .            3.77397e-06    .
14    .             .             .             .            8.35524e-06
15   3.54356e-06    .             .             .             .
17    .             .            3.0971e-06     .             .
19    .             .             .             .            3.00526e-06
27   4.92778e-06    .             .             .             .

:        21            22            23            24            25         :=
7     .             .             .            3.36437e-06    .
14   6.18408e-06    .             .             .             .
15    .            5.50646e-06    .             .             .
16    .             .             .             .            5.45313e-06
21    .            3.97808e-06    .             .             .
22    .             .            4.81046e-06    .             .
23    .             .             .             .            5.72994e-06
24    .             .            3.28002e-06    .             .

:        26            27            28           29            30         :=
8     .             .            4.0211e-06    .             .
11   5.41732e-06    .             .            .             .
16    .             .             .           4.15707e-06    .
26    .            3.57033e-06    .            .             .
28    .             .             .           3.95671e-06    .
29    .             .             .            .            6.66804e-06
32    .            5.59375e-06    .            .             .

:        31            32            33            34           35         :=
1    5.71638e-06    .             .             .            .
10    .            7.15048e-06    .             .            .
29    .             .            3.2461e-06     .            .
30    .             .             .             .           4.44871e-06
31    .             .             .            6.4715e-06    .
32    .             .            4.02441e-06    .            .
33    .             .             .            8.6873e-06    .
34    .             .             .             .           3.73716e-06

:        36         :=
9    4.61317e-06
35   5.42189e-06
;

*******************************************************************************

Constraints violation:


Sum of constraints violation: 12281.053909999997
*******************************************************************************

*******************************************************************************

Absolute and relative violations between original and approximation constraint 2:

+-----------------+--------------+--------------------------+------------------------+----------------------+----------------------+
| Constraint ID   |   flow value |   Original Con Violation |   Approx Con Violation |   Absolute Violation |   Relative Violation |
+=================+==============+==========================+========================+======================+======================+
| 1,17            |            0 |                        0 |                      0 |                    0 |                    0 |
+-----------------+--------------+--------------------------+------------------------+----------------------+----------------------+
| 1,31            |            0 |                        0 |                      0 |                    0 |                    0 |
+-----------------+--------------+--------------------------+------------------------+----------------------+----------------------+
| 2,3             |            0 |                        0 |                      0 |                    0 |                    0 |
+-----------------+--------------+--------------------------+------------------------+----------------------+----------------------+
| 2,18            |            0 |                        0 |                      0 |                    0 |                    0 |
+-----------------+--------------+--------------------------+------------------------+----------------------+----------------------+
| 3,4             |            0 |                        0 |                      0 |                    0 |                    0 |
+-----------------+--------------+--------------------------+------------------------+----------------------+----------------------+
| 3,11            |            0 |                        0 |                      0 |                    0 |                    0 |
+-----------------+--------------+--------------------------+------------------------+----------------------+----------------------+
| 4,5             |            0 |                        0 |                      0 |                    0 |                    0 |
+-----------------+--------------+--------------------------+------------------------+----------------------+----------------------+
| 5,6             |            0 |                        0 |                      0 |                    0 |                    0 |
+-----------------+--------------+--------------------------+------------------------+----------------------+----------------------+
| 5,13            |            0 |                        0 |                      0 |                    0 |                    0 |
+-----------------+--------------+--------------------------+------------------------+----------------------+----------------------+
| 6,7             |            0 |                        0 |                      0 |                    0 |                    0 |
+-----------------+--------------+--------------------------+------------------------+----------------------+----------------------+
| 7,24            |            0 |                        0 |                      0 |                    0 |                    0 |
+-----------------+--------------+--------------------------+------------------------+----------------------+----------------------+
| 8,28            |            0 |                        0 |                      0 |                    0 |                    0 |
+-----------------+--------------+--------------------------+------------------------+----------------------+----------------------+
| 9,36            |            0 |                        0 |                      0 |                    0 |                    0 |
+-----------------+--------------+--------------------------+------------------------+----------------------+----------------------+
| 10,11           |            0 |                        0 |                      0 |                    0 |                    0 |
+-----------------+--------------+--------------------------+------------------------+----------------------+----------------------+
| 10,32           |            0 |                        0 |                      0 |                    0 |                    0 |
+-----------------+--------------+--------------------------+------------------------+----------------------+----------------------+
| 11,19           |            0 |                        0 |                      0 |                    0 |                    0 |
+-----------------+--------------+--------------------------+------------------------+----------------------+----------------------+
| 11,26           |            0 |                        0 |                      0 |                    0 |                    0 |
+-----------------+--------------+--------------------------+------------------------+----------------------+----------------------+
| 12,4            |            0 |                        0 |                      0 |                    0 |                    0 |
+-----------------+--------------+--------------------------+------------------------+----------------------+----------------------+
| 12,13           |            0 |                        0 |                      0 |                    0 |                    0 |
+-----------------+--------------+--------------------------+------------------------+----------------------+----------------------+
| 13,14           |            0 |                        0 |                      0 |                    0 |                    0 |
+-----------------+--------------+--------------------------+------------------------+----------------------+----------------------+
| 14,20           |            0 |                        0 |                      0 |                    0 |                    0 |
+-----------------+--------------+--------------------------+------------------------+----------------------+----------------------+
| 14,21           |            0 |                        0 |                      0 |                    0 |                    0 |
+-----------------+--------------+--------------------------+------------------------+----------------------+----------------------+
| 15,16           |            0 |                        0 |                      0 |                    0 |                    0 |
+-----------------+--------------+--------------------------+------------------------+----------------------+----------------------+
| 15,22           |            0 |                        0 |                      0 |                    0 |                    0 |
+-----------------+--------------+--------------------------+------------------------+----------------------+----------------------+
| 16,25           |            0 |                        0 |                      0 |                    0 |                    0 |
+-----------------+--------------+--------------------------+------------------------+----------------------+----------------------+
| 16,29           |            0 |                        0 |                      0 |                    0 |                    0 |
+-----------------+--------------+--------------------------+------------------------+----------------------+----------------------+
| 17,2            |            0 |                        0 |                      0 |                    0 |                    0 |
+-----------------+--------------+--------------------------+------------------------+----------------------+----------------------+
| 17,18           |            0 |                        0 |                      0 |                    0 |                    0 |
+-----------------+--------------+--------------------------+------------------------+----------------------+----------------------+
| 18,10           |            0 |                        0 |                      0 |                    0 |                    0 |
+-----------------+--------------+--------------------------+------------------------+----------------------+----------------------+
| 19,12           |            0 |                        0 |                      0 |                    0 |                    0 |
+-----------------+--------------+--------------------------+------------------------+----------------------+----------------------+
| 19,20           |            0 |                        0 |                      0 |                    0 |                    0 |
+-----------------+--------------+--------------------------+------------------------+----------------------+----------------------+
| 20,15           |            0 |                        0 |                      0 |                    0 |                    0 |
+-----------------+--------------+--------------------------+------------------------+----------------------+----------------------+
| 21,6            |            0 |                        0 |                      0 |                    0 |                    0 |
+-----------------+--------------+--------------------------+------------------------+----------------------+----------------------+
| 21,22           |            0 |                        0 |                      0 |                    0 |                    0 |
+-----------------+--------------+--------------------------+------------------------+----------------------+----------------------+
| 22,7            |            0 |                        0 |                      0 |                    0 |                    0 |
+-----------------+--------------+--------------------------+------------------------+----------------------+----------------------+
| 22,23           |            0 |                        0 |                      0 |                    0 |                    0 |
+-----------------+--------------+--------------------------+------------------------+----------------------+----------------------+
| 23,25           |            0 |                        0 |                      0 |                    0 |                    0 |
+-----------------+--------------+--------------------------+------------------------+----------------------+----------------------+
| 24,8            |            0 |                        0 |                      0 |                    0 |                    0 |
+-----------------+--------------+--------------------------+------------------------+----------------------+----------------------+
| 24,23           |            0 |                        0 |                      0 |                    0 |                    0 |
+-----------------+--------------+--------------------------+------------------------+----------------------+----------------------+
| 25,8            |            0 |                        0 |                      0 |                    0 |                    0 |
+-----------------+--------------+--------------------------+------------------------+----------------------+----------------------+
| 26,15           |            0 |                        0 |                      0 |                    0 |                    0 |
+-----------------+--------------+--------------------------+------------------------+----------------------+----------------------+
| 26,27           |            0 |                        0 |                      0 |                    0 |                    0 |
+-----------------+--------------+--------------------------+------------------------+----------------------+----------------------+
| 27,16           |            0 |                        0 |                      0 |                    0 |                    0 |
+-----------------+--------------+--------------------------+------------------------+----------------------+----------------------+
| 28,9            |            0 |                        0 |                      0 |                    0 |                    0 |
+-----------------+--------------+--------------------------+------------------------+----------------------+----------------------+
| 28,29           |            0 |                        0 |                      0 |                    0 |                    0 |
+-----------------+--------------+--------------------------+------------------------+----------------------+----------------------+
| 29,30           |            0 |                        0 |                      0 |                    0 |                    0 |
+-----------------+--------------+--------------------------+------------------------+----------------------+----------------------+
| 29,33           |            0 |                        0 |                      0 |                    0 |                    0 |
+-----------------+--------------+--------------------------+------------------------+----------------------+----------------------+
| 30,9            |            0 |                        0 |                      0 |                    0 |                    0 |
+-----------------+--------------+--------------------------+------------------------+----------------------+----------------------+
| 30,35           |            0 |                        0 |                      0 |                    0 |                    0 |
+-----------------+--------------+--------------------------+------------------------+----------------------+----------------------+
| 31,10           |            0 |                        0 |                      0 |                    0 |                    0 |
+-----------------+--------------+--------------------------+------------------------+----------------------+----------------------+
| 31,34           |            0 |                        0 |                      0 |                    0 |                    0 |
+-----------------+--------------+--------------------------+------------------------+----------------------+----------------------+
| 32,27           |            0 |                        0 |                      0 |                    0 |                    0 |
+-----------------+--------------+--------------------------+------------------------+----------------------+----------------------+
| 32,33           |            0 |                        0 |                      0 |                    0 |                    0 |
+-----------------+--------------+--------------------------+------------------------+----------------------+----------------------+
| 33,34           |            0 |                        0 |                      0 |                    0 |                    0 |
+-----------------+--------------+--------------------------+------------------------+----------------------+----------------------+
| 34,35           |            0 |                        0 |                      0 |                    0 |                    0 |
+-----------------+--------------+--------------------------+------------------------+----------------------+----------------------+
| 35,36           |            0 |                        0 |                      0 |                    0 |                    0 |
+-----------------+--------------+--------------------------+------------------------+----------------------+----------------------+
| 36,1            |            0 |                        0 |                      0 |                    0 |                    0 |
+-----------------+--------------+--------------------------+------------------------+----------------------+----------------------+
| 37,1            |            0 |                      121 |                    121 |                    0 |                    0 |
+-----------------+--------------+--------------------------+------------------------+----------------------+----------------------+

Sum of violation of original headloss constraint: 121.0
Sum of violation of approx headloss constraint: 121.0

Con2 sum of absolute violation between original function and approximate function: 0.0
Con2 sum of relative violation between original function and approximate function: 0.0
*******************************************************************************

Total cost using gurobi: 0.0
gurobi solve time: 600.94 seconds
*******************************************************************************

